NAME : XML100_1155_05
DIMENSION : 101
NB_CLUSTERS : 20
CLUSTERING_ALG : KMeans
CLUSTERING_PARAMS : k(19)
CLUSTERS
1 0
2 1 34 73 92
3 4 22 26 28 40 42 77 85
4 10 36 97
5 7 14 65 67 70 84 96
6 3 13 16 33 81 87 88
7 12 15 41 45 52 71 100
8 6 37 43 62 68 72
9 21 47 63 64 79
10 2 38 69 82 94
11 9 27 50 51 83 95 99
12 8 55 57 93
13 11 25 44 49
14 5 17 19 29 35 46 61 80 90
15 23 60 74 89
16 24 31 32 76
17 20 39 53 54
18 58 78
19 30 56 59 66 75
20 18 48 86 91 98
EOF